16673 15327 1793
22092 10908 1517
17768 14232 1794
16530 17470 1443
21002 14998 1580
18232 15768 1732
19147 14853 1763
18320 14680 1785
21140 12860 1706
14942 17058 1668
21943 12057 1585
20660 15340 1568
15270 17730 1545
20073 14927 1710
21708 12292 1637
19848 14152 1765
15631 17369 1618
17455 14545 1796
18719 14281 1781
21960 12040 1554
21491 12509 1671
14554 17446 1613
14732 16268 1752
12767 18233 1476
19246 12754 1778
16467 16533 1703
21470 12530 1674
14375 17625 1583
20881 14119 1729
16449 15551 1790
20635 15365 1593
16728 17272 1587
15594 16406 1740
16907 17093 1617
16049 16951 1668
17699 16301 1693
18418 16582 1610
12656 18344 1403
17317 15683 1770
16194 15806 1782
19034 15966 1670
13353 17647 1587
20259 15741 1588
18163 16837 1482
18007 14993 1787
17061 14939 1797
16807 16193 1731
21333 13667 1665
21770 13230 1582
18463 15537 1747
22117 10883 1492
13731 18269 1449
17302 16698 1662
17619 15381 1783
21513 13487 1632
